(define-lemma  <relation-first-exists-H7_1_1_0-H7_1_1_1-Send5>
    ((H710-old <GameState_H7_<$<!n!>$>>)
     (H711-old <GameState_H7_<$<!n!>$>>)
     (H710-return <OracleReturn_H7_<$<!n!>$>_KX_noprfkey_<$<!n!>$>_Send5>)
     (H711-return <OracleReturn_H7_<$<!n!>$>_KX_noprfkey_<$<!n!>$>_Send5>)
     (ctr Int) (msg Bits_n))
  (let ((state (select H710-return.state.KX.State ctr)))
    (=> (and (not (is-mk-none state))
             (= (mk-some true) (select H710-return.state.KX.Fresh ctr)))
        (let  ((acc  (el11-5  (maybe-get state)))
               (sid  (el11-10 (maybe-get state))))
          (=> (and (not (is-mk-none sid)) (= acc (mk-some true)))
              (not (is-mk-none (select H710-old.KX.First (maybe-get sid)))))))))


(define-lemma  <relation-second-exists-H7_1_1_0-H7_1_1_1-Send5>
    ((H710-old <GameState_H7_<$<!n!>$>>)
     (H711-old <GameState_H7_<$<!n!>$>>)
     (H710-return <OracleReturn_H7_<$<!n!>$>_KX_noprfkey_<$<!n!>$>_Send5>)
     (H711-return <OracleReturn_H7_<$<!n!>$>_KX_noprfkey_<$<!n!>$>_Send5>)
     (ctr Int) (msg Bits_n))
  (let ((state (select H710-return.state.KX.State ctr)))
    (=> (and (not (is-mk-none state))
             (= (mk-some true) (select H710-return.state.KX.Fresh ctr)))
        (let  ((acc  (el11-5  (maybe-get state)))
               (sid  (el11-10 (maybe-get state))))
          (=> (and (not (is-mk-none sid)) (= acc (mk-some true)))
              (not (is-mk-none (select H710-old.KX.First (maybe-get sid)))))))))


(define-lemma <relation-in-first-or-second-H7_1_1_0-H7_1_1_1-Send5>
    ((H710-old <GameState_H7_<$<!n!>$>>)
     (H711-old <GameState_H7_<$<!n!>$>>)
     (H710-return <OracleReturn_H7_<$<!n!>$>_KX_noprfkey_<$<!n!>$>_Send5>)
     (H711-return <OracleReturn_H7_<$<!n!>$>_KX_noprfkey_<$<!n!>$>_Send5>)
     (ctr Int) (msg Bits_n))
  (let ((state (select H710-return.state.KX.State ctr)))
    (=> (and (not (is-mk-none state))
             (= (mk-some true) (select H710-return.state.KX.Fresh ctr)))
        (let  ((sid  (el11-10 (maybe-get state))))
          (or (= (mk-some ctr) (select H710-old.KX.Second (maybe-get sid)))
              (= (mk-some ctr) (select H710-old.KX.First (maybe-get sid))))))))

(define-lemma <relation-in-first-H7_1_1_0-H7_1_1_1-Send5>
    ((H710-old <GameState_H7_<$<!n!>$>>)
     (H711-old <GameState_H7_<$<!n!>$>>)
     (H710-return <OracleReturn_H7_<$<!n!>$>_KX_noprfkey_<$<!n!>$>_Send5>)
     (H711-return <OracleReturn_H7_<$<!n!>$>_KX_noprfkey_<$<!n!>$>_Send5>)
     (ctr Int) (msg Bits_n))
  (let ((state (select H710-return.state.KX.State ctr)))
    (=> (and (not (is-mk-none state))
             (= (mk-some true) (select H710-return.state.KX.Fresh ctr)))
        (let  ((sid  (el11-10 (maybe-get state))))
          (= (mk-some ctr) (select H710-old.KX.First (maybe-get sid)))))))
